400
500
350
350
348
347
347
346
346
346
346
345
344
344
343
342
341
341
340
340
338
338
337
337
337
336
334
334
333
333
332
332
332
331
331
331
330
330
330
328
328
327
326
325
325
325
324
324
323
321
321
319
318
318
317
317
316
316
315
314
311
310
309
308
308
306
306
305
303
302
302
302
302
300
299
299
299
297
296
295
295
295
293
293
293
293
292
291
291
291
290
290
288
288
287
286
286
286
286
285
283
283
282
282
282
280
280
279
279
278
278
277
277
276
276
275
274
272
271
270
269
268
268
268
267
266
266
266
265
264
264
263
263
262
262
257
257
257
256
255
253
253
252
252
252
252
250
250
249
249
248
247
247
246
246
245
245
244
241
239
239
239
239
236
234
234
233
231
231
231
228
228
227
226
225
223
223
220
220
220
219
219
218
218
217
217
216
214
214
213
211
209
208
208
208
207
206
206
205
204
204
204
203
203
202
202
200
199
199
198
198
197
197
197
195
193
193
192
192
191
190
190
189
188
187
187
186
186
185
183
183
182
182
182
181
180
180
180
180
179
179
178
176
176
175
175
175
175
173
173
173
172
172
172
171
170
170
170
170
169
168
168
167
167
167
167
166
166
166
165
163
162
162
161
161
160
160
158
158
157
157
157
156
156
156
155
154
152
152
152
149
147
145
144
143
143
142
140
139
138
138
136
136
135
135
132
131
131
131
131
130
130
129
128
127
126
126
126
125
125
124
123
122
121
121
120
119
119
119
118
118
118
117
117
117
117
115
115
115
114
113
113
108
106
106
105
103
101
101
101
100
99
98
98
97
96
96
95
95
94
94
92
92
92
91
91
89
88
88
87
86
86
85
83
82
81
81
81
80
79
79
79
78
78
77
76
75
75
74
68
67
64
60
59
59
57
55
54
54
53
51
51
